Cubic WO3 (2sqrt(2) x sqrt(2) R45 Rectangular)
1.0
   10.861160157   10.861160157    0.000000000
   -3.840000000    3.840000000    0.000000000
    0.000000000    0.000000000    7.680000000
W O
8 24
Direct
  0.125000000  0.250000000  0.250000000
  0.375000000  0.750000000  0.250000000
  0.625000000  0.250000000  0.250000000
  0.875000000  0.750000000  0.250000000
  0.125000000  0.250000000  0.750000000
  0.375000000  0.750000000  0.750000000
  0.625000000  0.250000000  0.750000000
  0.875000000  0.750000000  0.750000000
  0.125000000  0.750000000  0.250000000
  0.375000000  0.250000000  0.250000000
  0.625000000  0.750000000  0.250000000
  0.875000000  0.250000000  0.250000000
  0.000000000  0.000000000  0.250000000
  0.250000000  0.500000000  0.250000000
  0.500000000  0.000000000  0.250000000
  0.750000000  0.500000000  0.250000000
  0.125000000  0.750000000  0.750000000
  0.375000000  0.250000000  0.750000000
  0.625000000  0.750000000  0.750000000
  0.875000000  0.250000000  0.750000000
  0.000000000  0.000000000  0.750000000
  0.250000000  0.500000000  0.750000000
  0.500000000  0.000000000  0.750000000
  0.750000000  0.500000000  0.750000000
  0.125000000  0.250000000  0.000000000
  0.375000000  0.750000000  0.000000000
  0.625000000  0.250000000  0.000000000
  0.875000000  0.750000000  0.000000000
  0.125000000  0.250000000  0.500000000
  0.375000000  0.750000000  0.500000000
  0.625000000  0.250000000  0.500000000
  0.875000000  0.750000000  0.500000000