Cubic WO3 (W at Body Center) (2×2×2 supercell)
1.0
  7.680000000  0.000000000  0.000000000
  0.000000000  7.680000000  0.000000000
  0.000000000  0.000000000  32.499609391
W O
8 20
Cartesian
  1.920000000  1.920000000  26.739609391
  1.920000000  1.920000000  30.579609391
  1.920000000  5.760000000  26.739609391
  1.920000000  5.760000000  30.579609391
  5.760000000  1.920000000  26.739609391
  5.760000000  1.920000000  30.579609391
  5.760000000  5.760000000  26.739609391
  5.760000000  5.760000000  30.579609391
  1.920000000  0.000000000  26.739609391
  0.000000000  1.920000000  26.739609391
  1.920000000  1.920000000  28.659609391
  1.920000000  0.000000000  30.579609391
  0.000000000  1.920000000  30.579609391
  1.920000000  3.840000000  26.739609391
  0.000000000  5.760000000  26.739609391
  1.920000000  5.760000000  28.659609391
  1.920000000  3.840000000  30.579609391
  0.000000000  5.760000000  30.579609391
  5.760000000  0.000000000  26.739609391
  3.840000000  1.920000000  26.739609391
  5.760000000  1.920000000  28.659609391
  5.760000000  0.000000000  30.579609391
  3.840000000  1.920000000  30.579609391
  5.760000000  3.840000000  26.739609391
  3.840000000  5.760000000  26.739609391
  5.760000000  5.760000000  28.659609391
  5.760000000  3.840000000  30.579609391
  3.840000000  5.760000000  30.579609391