Si4
1.0
   1.9156587302657471   -3.3180182507831573    0.0000000000000000
   1.9156587302657471    3.3180182507831573    0.0000000000000000
   0.0000000000000000    0.0000000000000000    6.3326220001519111
Si
4
direct
   0.3333333333333330    0.6666666666666661    0.0630095000000000 Si0+
   0.6666666666666661    0.3333333333333330    0.5630094999999991 Si0+
   0.3333333333333330    0.6666666666666661    0.4369904999999991 Si0+
   0.6666666666666661    0.3333333333333330    0.9369904999999991 Si0+
