Si_diamond_cubic_conventional
1.0
        5.4310000000         0.0000000000         0.0000000000
        0.0000000000         5.4310000000         0.0000000000
        0.0000000000         0.0000000000         5.4310000000
Si
8
Direct
  0.0000000000  0.0000000000  0.0000000000
  0.5000000000  0.5000000000  0.0000000000
  0.5000000000  0.0000000000  0.5000000000
  0.0000000000  0.5000000000  0.5000000000
  0.2500000000  0.2500000000  0.2500000000
  0.7500000000  0.7500000000  0.2500000000
  0.7500000000  0.2500000000  0.7500000000
  0.2500000000  0.7500000000  0.7500000000