Cubic WO3 (W at Body Center) (2×2×4 supercell)
1.0
  7.665888594  0.000000000  0.000000000
  0.000000000  7.665888594  0.000000000
  0.000000000  0.000000000  35.332594906
W O
16 46
Selective Dynamics
Cartesian
   1.916472148   1.916472148   1.916472148  F F F
   1.916472148   1.916472148   5.749416445  F F F
   1.916472148   1.916472148   9.582360742  F F F
   1.916472148   1.916472148  13.415305039  T T T
   1.916472148   5.749416445   1.916472148  F F F
   1.916472148   5.749416445   5.749416445  F F F
   1.916472148   5.749416445   9.582360742  F F F
   1.916472148   5.749416445  13.415305039  T T T
   5.749416445   1.916472148   1.916472148  F F F
   5.749416445   1.916472148   5.749416445  F F F
   5.749416445   1.916472148   9.582360742  F F F
   5.749416445   1.916472148  13.415305039  T T T
   5.749416445   5.749416445   1.916472148  F F F
   5.749416445   5.749416445   5.749416445  F F F
   5.749416445   5.749416445   9.582360742  F F F
   5.749416445   5.749416445  13.415305039  T T T
   1.916472148   1.916472148   3.832944297  F F F
   1.916472148   3.832944297   1.916472148  F F F
   3.832944297   1.916472148   1.916472148  F F F
   1.916472148   1.916472148   7.665888594  F F F
   1.916472148   3.832944297   5.749416445  F F F
   3.832944297   1.916472148   5.749416445  F F F
   1.916472148   1.916472148  11.498832891  T T T
   1.916472148   3.832944297   9.582360742  F F F
   3.832944297   1.916472148   9.582360742  F F F
   1.916472148   1.916472148  15.331777188  T T T
   1.916472148   3.832944297  13.415305039  T T T
   3.832944297   1.916472148  13.415305039  T T T
   1.916472148   5.749416445   3.832944297  F F F
   1.916472148   7.665888594   1.916472148  F F F
   3.832944297   5.749416445   1.916472148  F F F
   1.916472148   5.749416445   7.665888594  F F F
   1.916472148   7.665888594   5.749416445  F F F
   3.832944297   5.749416445   5.749416445  F F F
   1.916472148   5.749416445  11.498832891  T T T
   1.916472148   7.665888594   9.582360742  F F F
   3.832944297   5.749416445   9.582360742  F F F
   1.916472148   7.665888594  13.415305039  T T T
   3.832944297   5.749416445  13.415305039  T T T
   5.749416445   1.916472148   3.832944297  F F F
   5.749416445   3.832944297   1.916472148  F F F
   7.665888594   1.916472148   1.916472148  F F F
   5.749416445   1.916472148   7.665888594  F F F
   5.749416445   3.832944297   5.749416445  F F F
   7.665888594   1.916472148   5.749416445  F F F
   5.749416445   1.916472148  11.498832891  T T T
   5.749416445   3.832944297   9.582360742  F F F
   7.665888594   1.916472148   9.582360742  F F F
   5.749416445   3.832944297  13.415305039  T T T
   7.665888594   1.916472148  13.415305039  T T T
   5.749416445   5.749416445   3.832944297  F F F
   5.749416445   7.665888594   1.916472148  F F F
   7.665888594   5.749416445   1.916472148  F F F
   5.749416445   5.749416445   7.665888594  F F F
   5.749416445   7.665888594   5.749416445  F F F
   7.665888594   5.749416445   5.749416445  F F F
   5.749416445   5.749416445  11.498832891  T T T
   5.749416445   7.665888594   9.582360742  F F F
   7.665888594   5.749416445   9.582360742  F F F
   5.749416445   5.749416445  15.331777188  T T T
   5.749416445   7.665888594  13.415305039  T T T
   7.665888594   5.749416445  13.415305039  T T T