W4 O12
1.0
        3.8931310177         0.0000000000         0.0000000000
        0.0000000000         7.6757349968         0.0000000000
        0.0000000000         0.0000000000         7.7504339218
    W    O
    4   12
Direct
     0.966602981         0.750000000         0.479829013
     0.033397000         0.750000000         0.979829013
     0.033397000         0.250000000         0.520170987
     0.966602981         0.250000000         0.020171000
     0.000000000         0.000000000         0.500000000
     0.000000000         0.500000000         0.000000000
     0.000000000         0.500000000         0.500000000
     0.000000000         0.000000000         0.000000000
     0.997699022         0.750000000         0.240592003
     0.002301000         0.750000000         0.740592003
     0.002301000         0.250000000         0.759407997
     0.997699022         0.250000000         0.259407997
     0.492408007         0.750000000         0.487363994
     0.507592022         0.750000000         0.987363994
     0.507592022         0.250000000         0.512636006
     0.492408007         0.250000000         0.012636000
