WO3 Test Trajectory
           1
     3.840000    0.000000    0.000000
     0.000000    3.840000    0.000000
     0.000000    0.000000    3.840000
   W    O 
   1   3
Direct configuration=     1
   0.50000000  0.50000000  0.50000000
   0.50000000  0.50000000  0.00000000
   0.50000000  0.00000000  0.50000000
   0.00000000  0.50000000  0.50000000
Direct configuration=     2
   0.50000000  0.50000000  0.51000000
   0.50000000  0.50000000  0.01000000
   0.50000000  0.01000000  0.50000000
   0.01000000  0.50000000  0.50000000
Direct configuration=     3
   0.50000000  0.50000000  0.52000000
   0.50000000  0.50000000  0.02000000
   0.50000000  0.02000000  0.50000000
   0.02000000  0.50000000  0.50000000
Direct configuration=     4
   0.50000000  0.50000000  0.53000000
   0.50000000  0.50000000  0.03000000
   0.50000000  0.03000000  0.50000000
   0.03000000  0.50000000  0.50000000
Direct configuration=     5
   0.50000000  0.50000000  0.54000000
   0.50000000  0.50000000  0.04000000
   0.50000000  0.04000000  0.50000000
   0.04000000  0.50000000  0.50000000
