8
Lattice="5.43100000 0 0 0 5.43100000 0 0 0 5.43100000" Properties=species:S:1:pos:R:3 silicon diamond cubic
Si     0.0000000000    0.0000000000    0.0000000000
Si     2.7155000000    2.7155000000    0.0000000000
Si     2.7155000000    0.0000000000    2.7155000000
Si     0.0000000000    2.7155000000    2.7155000000
Si     1.3577500000    1.3577500000    1.3577500000
Si     4.0732500000    4.0732500000    1.3577500000
Si     4.0732500000    1.3577500000    4.0732500000
Si     1.3577500000    4.0732500000    4.0732500000
