Al(001) 3-layer slab, bottom layer fixed
   1.00000000000000
    4.0500000000    0.0000000000    0.0000000000
    0.0000000000    4.0500000000    0.0000000000
    0.0000000000    0.0000000000   20.0000000000
Al
6
Selective dynamics
Direct
   0.0000000000    0.0000000000    0.1000000000    F   F   F
   0.5000000000    0.5000000000    0.1000000000    F   F   F
   0.5000000000    0.0000000000    0.2000000000    T   T   F
   0.0000000000    0.5000000000    0.2000000000    T   T   T
   0.0000000000    0.0000000000    0.3000000000    T   T   T
   0.5000000000    0.5000000000    0.3000000000    T   T   T
