Graphene 3x3 sheet with vacuum
   1.00000000000000
    7.3800000000    0.0000000000    0.0000000000
   -3.6900000000    6.3912674799    0.0000000000
    0.0000000000    0.0000000000   20.0000000000
C
18
Direct
    0.0000000000    0.0000000000    0.5000000000
    0.1111111111    0.2222222222    0.5000000000
    0.0000000000    0.3333333333    0.5000000000
    0.1111111111    0.5555555556    0.5000000000
    0.0000000000    0.6666666667    0.5000000000
    0.1111111111    0.8888888889    0.5000000000
    0.3333333333    0.0000000000    0.5000000000
    0.4444444444    0.2222222222    0.5000000000
    0.3333333333    0.3333333333    0.5000000000
    0.4444444444    0.5555555556    0.5000000000
    0.3333333333    0.6666666667    0.5000000000
    0.4444444444    0.8888888889    0.5000000000
    0.6666666667    0.0000000000    0.5000000000
    0.7777777778    0.2222222222    0.5000000000
    0.6666666667    0.3333333333    0.5000000000
    0.7777777778    0.5555555556    0.5000000000
    0.6666666667    0.6666666667    0.5000000000
    0.7777777778    0.8888888889    0.5000000000
