NaCl rocksalt cubic
   1.00000000000000
    5.6400000000    0.0000000000    0.0000000000
    0.0000000000    5.6400000000    0.0000000000
    0.0000000000    0.0000000000    5.6400000000
Na Cl
4 4
Direct
    0.0000000000    0.0000000000    0.0000000000
    0.5000000000    0.5000000000    0.0000000000
    0.5000000000    0.0000000000    0.5000000000
    0.0000000000    0.5000000000    0.5000000000
    0.5000000000    0.0000000000    0.0000000000
    0.0000000000    0.5000000000    0.0000000000
    0.0000000000    0.0000000000    0.5000000000
    0.5000000000    0.5000000000    0.5000000000
