Silicon diamond cubic, scaled lattice
   5.43100000000000
    1.0000000000    0.0000000000    0.0000000000
    0.0000000000    1.0000000000    0.0000000000
    0.0000000000    0.0000000000    1.0000000000
Si
8
Direct
    0.0000000000    0.0000000000    0.0000000000
    0.5000000000    0.5000000000    0.0000000000
    0.5000000000    0.0000000000    0.5000000000
    0.0000000000    0.5000000000    0.5000000000
    0.2500000000    0.2500000000    0.2500000000
    0.7500000000    0.7500000000    0.2500000000
    0.7500000000    0.2500000000    0.7500000000
    0.2500000000    0.7500000000    0.7500000000
